words_train/words_347_SAT.qaiger
aag 73 16 0 1 57
16
30
18
2
6
32
4
12
10
20
14
22
8
28
26
24
147
34 14 12
36 34 10
38 36 16
40 16 14
42 40 12
44 43 11
46 45 39
48 46 25
50 31 4
52 30 5
54 53 51
56 33 3
58 32 2
60 59 57
62 61 4
64 63 6
66 65 55
68 60 51
70 69 67
72 70 49
74 38 8
76 29 7
78 28 6
80 79 77
82 81 54
84 82 75
86 36 8
88 54 29
90 89 86
92 90 80
94 93 85
96 41 13
98 97 43
100 98 23
102 99 22
104 103 101
106 104 95
108 106 72
110 21 14
112 20 15
114 113 111
116 115 19
118 117 16
120 27 9
122 26 8
124 123 121
126 124 39
128 125 42
130 129 25
132 131 47
134 81 18
136 134 114
138 137 17
140 139 133
142 140 127
144 142 119
146 144 108
i0 1 x[7]
i1 2 z[6]
i2 2 z[0]
i3 1 x[0]
i4 1 x[2]
i5 2 z[7]
i6 1 x[1]
i7 1 x[5]
i8 1 x[4]
i9 2 z[1]
i10 1 x[6]
i11 2 z[2]
i12 1 x[3]
i13 2 z[5]
i14 2 z[4]
i15 2 z[3]
o0 bool[0]
c
simplified
  !=
    subtract
      add
        reverse
          1 x
        << 1
          1
      1
    2 z
