words_train/words_347_SAT.qaiger.qdimacs
p cnf 73 172
a 1 2 3 4 5 6 7 8 0
e 9 10 11 12 13 14 15 16 17 18 19 20 21 22 23 24 25 26 27 28 29 30 31 32 33 34 35 36 37 38 39 40 41 42 43 44 45 46 47 48 49 50 51 52 53 54 55 56 57 58 59 60 61 62 63 64 65 66 67 68 69 70 71 72 73 0
-7 -6 17 0
7 -17 0
6 -17 0
-17 -5 18 0
17 -18 0
5 -18 0
-18 -8 19 0
18 -19 0
8 -19 0
-8 -7 20 0
8 -20 0
7 -20 0
-20 -6 21 0
20 -21 0
6 -21 0
21 5 22 0
-21 -22 0
-5 -22 0
22 19 23 0
-22 -23 0
-19 -23 0
-23 12 24 0
23 -24 0
-12 -24 0
15 -2 25 0
-15 -25 0
2 -25 0
-15 2 26 0
15 -26 0
-2 -26 0
26 25 27 0
-26 -27 0
-25 -27 0
16 1 28 0
-16 -28 0
-1 -28 0
-16 -1 29 0
16 -29 0
1 -29 0
29 28 30 0
-29 -30 0
-28 -30 0
30 -2 31 0
-30 -31 0
2 -31 0
31 -3 32 0
-31 -32 0
3 -32 0
32 27 33 0
-32 -33 0
-27 -33 0
-30 25 34 0
30 -34 0
-25 -34 0
34 33 35 0
-34 -35 0
-33 -35 0
-35 24 36 0
35 -36 0
-24 -36 0
-19 -4 37 0
19 -37 0
4 -37 0
14 3 38 0
-14 -38 0
-3 -38 0
-14 -3 39 0
14 -39 0
3 -39 0
39 38 40 0
-39 -40 0
-38 -40 0
40 -27 41 0
-40 -41 0
27 -41 0
-41 37 42 0
41 -42 0
-37 -42 0
-18 -4 43 0
18 -43 0
4 -43 0
-27 14 44 0
27 -44 0
-14 -44 0
44 -43 45 0
-44 -45 0
43 -45 0
-45 -40 46 0
45 -46 0
40 -46 0
46 42 47 0
-46 -47 0
-42 -47 0
20 6 48 0
-20 -48 0
-6 -48 0
48 21 49 0
-48 -49 0
-21 -49 0
-49 11 50 0
49 -50 0
-11 -50 0
49 -11 51 0
-49 -51 0
11 -51 0
51 50 52 0
-51 -52 0
-50 -52 0
-52 47 53 0
52 -53 0
-47 -53 0
-53 -36 54 0
53 -54 0
36 -54 0
10 -7 55 0
-10 -55 0
7 -55 0
-10 7 56 0
10 -56 0
-7 -56 0
56 55 57 0
-56 -57 0
-55 -57 0
57 9 58 0
-57 -58 0
-9 -58 0
58 -8 59 0
-58 -59 0
8 -59 0
13 4 60 0
-13 -60 0
-4 -60 0
-13 -4 61 0
13 -61 0
4 -61 0
61 60 62 0
-61 -62 0
-60 -62 0
-62 19 63 0
62 -63 0
-19 -63 0
62 -21 64 0
-62 -64 0
21 -64 0
64 12 65 0
-64 -65 0
-12 -65 0
65 23 66 0
-65 -66 0
-23 -66 0
40 -9 67 0
-40 -67 0
9 -67 0
-67 -57 68 0
67 -68 0
57 -68 0
68 8 69 0
-68 -69 0
-8 -69 0
69 66 70 0
-69 -70 0
-66 -70 0
-70 63 71 0
70 -71 0
-63 -71 0
-71 59 72 0
71 -72 0
-59 -72 0
-72 -54 73 0
72 -73 0
54 -73 0
-73 0
